\* berth *\
Minimize
OBJ: 496 mid_for_y_0 + 578 mid_for_y_1 + 518 mid_for_y_10 + 406 mid_for_y_11
 + 425 mid_for_y_12 + 590 mid_for_y_13 + 589 mid_for_y_14 + 542 mid_for_y_15
 + 446 mid_for_y_16 + 495 mid_for_y_17 + 577 mid_for_y_18 + 503 mid_for_y_19
 + 443 mid_for_y_2 + 491 mid_for_y_20 + 414 mid_for_y_21 + 492 mid_for_y_22
 + 470 mid_for_y_23 + 523 mid_for_y_24 + 441 mid_for_y_25 + 579 mid_for_y_26
 + 504 mid_for_y_27 + 584 mid_for_y_28 + 560 mid_for_y_29 + 597 mid_for_y_3
 + 442 mid_for_y_30 + 591 mid_for_y_31 + 582 mid_for_y_32 + 577 mid_for_y_33
 + 536 mid_for_y_34 + 521 mid_for_y_35 + 574 mid_for_y_36 + 508 mid_for_y_37
 + 428 mid_for_y_38 + 529 mid_for_y_39 + 495 mid_for_y_4 + 442 mid_for_y_5
 + 453 mid_for_y_6 + 463 mid_for_y_7 + 596 mid_for_y_8 + 501 mid_for_y_9
 + 476 mid_x_0 + 479 mid_x_1 + 571 mid_x_10 + 476 mid_x_11 + 428 mid_x_12
 + 442 mid_x_13 + 487 mid_x_14 + 514 mid_x_15 + 548 mid_x_16 + 424 mid_x_17
 + 427 mid_x_18 + 526 mid_x_19 + 550 mid_x_2 + 492 mid_x_20 + 532 mid_x_21
 + 426 mid_x_22 + 594 mid_x_23 + 586 mid_x_24 + 438 mid_x_25 + 506 mid_x_26
 + 436 mid_x_27 + 569 mid_x_28 + 532 mid_x_29 + 493 mid_x_3 + 554 mid_x_30
 + 546 mid_x_31 + 401 mid_x_32 + 421 mid_x_33 + 582 mid_x_34 + 434 mid_x_35
 + 502 mid_x_36 + 474 mid_x_37 + 515 mid_x_38 + 531 mid_x_39 + 527 mid_x_4
 + 582 mid_x_5 + 443 mid_x_6 + 589 mid_x_7 + 417 mid_x_8 + 426 mid_x_9
Subject To
_C1: mid_x_0 >= 0
_C10: - mid_x_1 - x_1 <= -839
_C100: mid_for_y_12 >= 0
_C101: mid_for_y_12 - y_12 >= -8
_C102: x_12 <= 1124
_C103: y_12 >= 8
_C104: x_12 >= 0
_C105: mid_x_13 >= 0
_C106: - mid_x_13 - x_13 <= -1146
_C107: mid_x_13 - x_13 >= -1146
_C108: mid_for_y_13 >= 0
_C109: mid_for_y_13 - y_13 >= -184
_C11: mid_x_1 - x_1 >= -839
_C110: x_13 <= 1130
_C111: y_13 >= 184
_C112: x_13 >= 0
_C113: mid_x_14 >= 0
_C114: - mid_x_14 - x_14 <= -993
_C115: mid_x_14 - x_14 >= -993
_C116: mid_for_y_14 >= 0
_C117: mid_for_y_14 - y_14 >= -189
_C118: x_14 <= 1125
_C119: y_14 >= 189
_C12: mid_for_y_1 >= 0
_C120: x_14 >= 0
_C121: mid_x_15 >= 0
_C122: - mid_x_15 - x_15 <= -173
_C123: mid_x_15 - x_15 >= -173
_C124: mid_for_y_15 >= 0
_C125: mid_for_y_15 - y_15 >= -58
_C126: x_15 <= 1126
_C127: y_15 >= 58
_C128: x_15 >= 0
_C129: mid_x_16 >= 0
_C13: mid_for_y_1 - y_1 >= -114
_C130: - mid_x_16 - x_16 <= -210
_C131: mid_x_16 - x_16 >= -210
_C132: mid_for_y_16 >= 0
_C133: mid_for_y_16 - y_16 >= -101
_C134: x_16 <= 1117
_C135: y_16 >= 101
_C136: x_16 >= 0
_C137: mid_x_17 >= 0
_C138: - mid_x_17 - x_17 <= -182
_C139: mid_x_17 - x_17 >= -182
_C14: x_1 <= 1120
_C140: mid_for_y_17 >= 0
_C141: mid_for_y_17 - y_17 >= -204
_C142: x_17 <= 1123
_C143: y_17 >= 204
_C144: x_17 >= 0
_C145: mid_x_18 >= 0
_C146: - mid_x_18 - x_18 <= -63
_C147: mid_x_18 - x_18 >= -63
_C148: mid_for_y_18 >= 0
_C149: mid_for_y_18 - y_18 >= -146
_C15: y_1 >= 114
_C150: x_18 <= 1123
_C151: y_18 >= 146
_C152: x_18 >= 0
_C153: mid_x_19 >= 0
_C154: - mid_x_19 - x_19 <= -206
_C155: mid_x_19 - x_19 >= -206
_C156: mid_for_y_19 >= 0
_C157: mid_for_y_19 - y_19 >= -319
_C158: x_19 <= 1113
_C159: y_19 >= 319
_C16: x_1 >= 0
_C160: x_19 >= 0
_C161: mid_x_20 >= 0
_C162: - mid_x_20 - x_20 <= -247
_C163: mid_x_20 - x_20 >= -247
_C164: mid_for_y_20 >= 0
_C165: mid_for_y_20 - y_20 >= -104
_C166: x_20 <= 1125
_C167: y_20 >= 104
_C168: x_20 >= 0
_C169: mid_x_21 >= 0
_C17: mid_x_2 >= 0
_C170: - mid_x_21 - x_21 <= -825
_C171: mid_x_21 - x_21 >= -825
_C172: mid_for_y_21 >= 0
_C173: mid_for_y_21 - y_21 >= -77
_C174: x_21 <= 1127
_C175: y_21 >= 77
_C176: x_21 >= 0
_C177: mid_x_22 >= 0
_C178: - mid_x_22 - x_22 <= -616
_C179: mid_x_22 - x_22 >= -616
_C18: - mid_x_2 - x_2 <= -909
_C180: mid_for_y_22 >= 0
_C181: mid_for_y_22 - y_22 >= -138
_C182: x_22 <= 1113
_C183: y_22 >= 138
_C184: x_22 >= 0
_C185: mid_x_23 >= 0
_C186: - mid_x_23 - x_23 <= -883
_C187: mid_x_23 - x_23 >= -883
_C188: mid_for_y_23 >= 0
_C189: mid_for_y_23 - y_23 >= -3
_C19: mid_x_2 - x_2 >= -909
_C190: x_23 <= 1116
_C191: y_23 >= 3
_C192: x_23 >= 0
_C193: mid_x_24 >= 0
_C194: - mid_x_24 - x_24 <= -42
_C195: mid_x_24 - x_24 >= -42
_C196: mid_for_y_24 >= 0
_C197: mid_for_y_24 - y_24 >= -193
_C198: x_24 <= 1120
_C199: y_24 >= 193
_C2: - mid_x_0 - x_0 <= -1200
_C20: mid_for_y_2 >= 0
_C200: x_24 >= 0
_C201: mid_x_25 >= 0
_C202: - mid_x_25 - x_25 <= -302
_C203: mid_x_25 - x_25 >= -302
_C204: mid_for_y_25 >= 0
_C205: mid_for_y_25 - y_25 >= -312
_C206: x_25 <= 1126
_C207: y_25 >= 312
_C208: x_25 >= 0
_C209: mid_x_26 >= 0
_C21: mid_for_y_2 - y_2 >= -73
_C210: - mid_x_26 - x_26 <= -453
_C211: mid_x_26 - x_26 >= -453
_C212: mid_for_y_26 >= 0
_C213: mid_for_y_26 - y_26 >= -193
_C214: x_26 <= 1129
_C215: y_26 >= 193
_C216: x_26 >= 0
_C217: mid_x_27 >= 0
_C218: - mid_x_27 - x_27 <= -694
_C219: mid_x_27 - x_27 >= -694
_C22: x_2 <= 1115
_C220: mid_for_y_27 >= 0
_C221: mid_for_y_27 - y_27 >= -100
_C222: x_27 <= 1129
_C223: y_27 >= 100
_C224: x_27 >= 0
_C225: mid_x_28 >= 0
_C226: - mid_x_28 - x_28 <= -184
_C227: mid_x_28 - x_28 >= -184
_C228: mid_for_y_28 >= 0
_C229: mid_for_y_28 - y_28 >= -306
_C23: y_2 >= 73
_C230: x_28 <= 1117
_C231: y_28 >= 306
_C232: x_28 >= 0
_C233: mid_x_29 >= 0
_C234: - mid_x_29 - x_29 <= -759
_C235: mid_x_29 - x_29 >= -759
_C236: mid_for_y_29 >= 0
_C237: mid_for_y_29 - y_29 >= -140
_C238: x_29 <= 1130
_C239: y_29 >= 140
_C24: x_2 >= 0
_C240: x_29 >= 0
_C241: mid_x_30 >= 0
_C242: - mid_x_30 - x_30 <= -347
_C243: mid_x_30 - x_30 >= -347
_C244: mid_for_y_30 >= 0
_C245: mid_for_y_30 - y_30 >= -5
_C246: x_30 <= 1125
_C247: y_30 >= 5
_C248: x_30 >= 0
_C249: mid_x_31 >= 0
_C25: mid_x_3 >= 0
_C250: - mid_x_31 - x_31 <= -791
_C251: mid_x_31 - x_31 >= -791
_C252: mid_for_y_31 >= 0
_C253: mid_for_y_31 - y_31 >= -264
_C254: x_31 <= 1126
_C255: y_31 >= 264
_C256: x_31 >= 0
_C257: mid_x_32 >= 0
_C258: - mid_x_32 - x_32 <= -32
_C259: mid_x_32 - x_32 >= -32
_C26: - mid_x_3 - x_3 <= -522
_C260: mid_for_y_32 >= 0
_C261: mid_for_y_32 - y_32 >= -198
_C262: x_32 <= 1129
_C263: y_32 >= 198
_C264: x_32 >= 0
_C265: mid_x_33 >= 0
_C266: - mid_x_33 - x_33 <= -106
_C267: mid_x_33 - x_33 >= -106
_C268: mid_for_y_33 >= 0
_C269: mid_for_y_33 - y_33 >= -235
_C27: mid_x_3 - x_3 >= -522
_C270: x_33 <= 1130
_C271: y_33 >= 235
_C272: x_33 >= 0
_C273: mid_x_34 >= 0
_C274: - mid_x_34 - x_34 <= -1111
_C275: mid_x_34 - x_34 >= -1111
_C276: mid_for_y_34 >= 0
_C277: mid_for_y_34 - y_34 >= -106
_C278: x_34 <= 1111
_C279: y_34 >= 106
_C28: mid_for_y_3 >= 0
_C280: x_34 >= 0
_C281: mid_x_35 >= 0
_C282: - mid_x_35 - x_35 <= -567
_C283: mid_x_35 - x_35 >= -567
_C284: mid_for_y_35 >= 0
_C285: mid_for_y_35 - y_35 >= -165
_C286: x_35 <= 1122
_C287: y_35 >= 165
_C288: x_35 >= 0
_C289: mid_x_36 >= 0
_C29: mid_for_y_3 - y_3 >= -36
_C290: - mid_x_36 - x_36 <= -920
_C291: mid_x_36 - x_36 >= -920
_C292: mid_for_y_36 >= 0
_C293: mid_for_y_36 - y_36 >= -280
_C294: x_36 <= 1115
_C295: y_36 >= 280
_C296: x_36 >= 0
_C297: mid_x_37 >= 0
_C298: - mid_x_37 - x_37 <= -104
_C299: mid_x_37 - x_37 >= -104
_C3: mid_x_0 - x_0 >= -1200
_C30: x_3 <= 1127
_C300: mid_for_y_37 >= 0
_C301: mid_for_y_37 - y_37 >= -40
_C302: x_37 <= 1126
_C303: y_37 >= 40
_C304: x_37 >= 0
_C305: mid_x_38 >= 0
_C306: - mid_x_38 - x_38 <= -1149
_C307: mid_x_38 - x_38 >= -1149
_C308: mid_for_y_38 >= 0
_C309: mid_for_y_38 - y_38 >= -48
_C31: y_3 >= 36
_C310: x_38 <= 1114
_C311: y_38 >= 48
_C312: x_38 >= 0
_C313: mid_x_39 >= 0
_C314: - mid_x_39 - x_39 <= -600
_C315: mid_x_39 - x_39 >= -600
_C316: mid_for_y_39 >= 0
_C317: mid_for_y_39 - y_39 >= -191
_C318: x_39 <= 1120
_C319: y_39 >= 191
_C32: x_3 >= 0
_C320: x_39 >= 0
_C321: - x_4 + x_8 + 100000000 z_x_(8,_4) <= 99999927
_C322: x_4 - x_8 + 100000000 z_x_(4,_8) <= 99999910
_C323: - y_4 + y_8 + 100000000 z_y_(8,_4) <= 99999975
_C324: y_4 - y_8 + 100000000 z_y_(4,_8) <= 99999971
_C325: z_x_(4,_8) + z_x_(8,_4) + z_y_(4,_8) + z_y_(8,_4) >= 1
_C326: x_11 - x_4 + 100000000 z_x_(11,_4) <= 99999920
_C327: - x_11 + x_4 + 100000000 z_x_(4,_11) <= 99999910
_C328: y_11 - y_4 + 100000000 z_y_(11,_4) <= 99999971
_C329: - y_11 + y_4 + 100000000 z_y_(4,_11) <= 99999971
_C33: mid_x_4 >= 0
_C330: z_x_(11,_4) + z_x_(4,_11) + z_y_(11,_4) + z_y_(4,_11) >= 1
_C331: x_11 - x_8 + 100000000 z_x_(11,_8) <= 99999920
_C332: - x_11 + x_8 + 100000000 z_x_(8,_11) <= 99999927
_C333: y_11 - y_8 + 100000000 z_y_(11,_8) <= 99999971
_C334: - y_11 + y_8 + 100000000 z_y_(8,_11) <= 99999975
_C335: z_x_(11,_8) + z_x_(8,_11) + z_y_(11,_8) + z_y_(8,_11) >= 1
_C336: x_16 - x_6 + 100000000 z_x_(16,_6) <= 99999917
_C337: - x_16 + x_6 + 100000000 z_x_(6,_16) <= 99999915
_C338: y_16 - y_6 + 100000000 z_y_(16,_6) <= 99999965
_C339: - y_16 + y_6 + 100000000 z_y_(6,_16) <= 99999965
_C34: - mid_x_4 - x_4 <= -340
_C340: z_x_(16,_6) + z_x_(6,_16) + z_y_(16,_6) + z_y_(6,_16) >= 1
_C341: x_20 - x_6 + 100000000 z_x_(20,_6) <= 99999925
_C342: - x_20 + x_6 + 100000000 z_x_(6,_20) <= 99999915
_C343: y_20 - y_6 + 100000000 z_y_(20,_6) <= 99999969
_C344: - y_20 + y_6 + 100000000 z_y_(6,_20) <= 99999965
_C345: z_x_(20,_6) + z_x_(6,_20) + z_y_(20,_6) + z_y_(6,_20) >= 1
_C346: - x_16 + x_20 + 100000000 z_x_(20,_16) <= 99999925
_C347: x_16 - x_20 + 100000000 z_x_(16,_20) <= 99999917
_C348: - y_16 + y_20 + 100000000 z_y_(20,_16) <= 99999969
_C349: y_16 - y_20 + 100000000 z_y_(16,_20) <= 99999965
_C35: mid_x_4 - x_4 >= -340
_C350: z_x_(16,_20) + z_x_(20,_16) + z_y_(16,_20) + z_y_(20,_16) >= 1
_C351: x_25 - x_4 + 100000000 z_x_(25,_4) <= 99999926
_C352: - x_25 + x_4 + 100000000 z_x_(4,_25) <= 99999910
_C353: y_25 - y_4 + 100000000 z_y_(25,_4) <= 99999966
_C354: - y_25 + y_4 + 100000000 z_y_(4,_25) <= 99999971
_C355: z_x_(25,_4) + z_x_(4,_25) + z_y_(25,_4) + z_y_(4,_25) >= 1
_C356: - x_11 + x_25 + 100000000 z_x_(25,_11) <= 99999926
_C357: x_11 - x_25 + 100000000 z_x_(11,_25) <= 99999920
_C358: - y_11 + y_25 + 100000000 z_y_(25,_11) <= 99999966
_C359: y_11 - y_25 + 100000000 z_y_(11,_25) <= 99999971
_C36: mid_for_y_4 >= 0
_C360: z_x_(11,_25) + z_x_(25,_11) + z_y_(11,_25) + z_y_(25,_11) >= 1
_C361: - x_19 + x_28 + 100000000 z_x_(28,_19) <= 99999917
_C362: x_19 - x_28 + 100000000 z_x_(19,_28) <= 99999913
_C363: - y_19 + y_28 + 100000000 z_y_(28,_19) <= 99999966
_C364: y_19 - y_28 + 100000000 z_y_(19,_28) <= 99999965
_C365: z_x_(19,_28) + z_x_(28,_19) + z_y_(19,_28) + z_y_(28,_19) >= 1
_C366: - x_10 + x_30 + 100000000 z_x_(30,_10) <= 99999925
_C367: x_10 - x_30 + 100000000 z_x_(10,_30) <= 99999920
_C368: - y_10 + y_30 + 100000000 z_y_(30,_10) <= 99999974
_C369: y_10 - y_30 + 100000000 z_y_(10,_30) <= 99999974
_C37: mid_for_y_4 - y_4 >= -307
_C370: z_x_(10,_30) + z_x_(30,_10) + z_y_(10,_30) + z_y_(30,_10) >= 1
_C371: - x_24 + x_32 + 100000000 z_x_(32,_24) <= 99999929
_C372: x_24 - x_32 + 100000000 z_x_(24,_32) <= 99999920
_C373: - y_24 + y_32 + 100000000 z_y_(32,_24) <= 99999972
_C374: y_24 - y_32 + 100000000 z_y_(24,_32) <= 99999973
_C375: z_x_(24,_32) + z_x_(32,_24) + z_y_(24,_32) + z_y_(32,_24) >= 1
_C376: - x_15 + x_37 + 100000000 z_x_(37,_15) <= 99999926
_C377: x_15 - x_37 + 100000000 z_x_(15,_37) <= 99999926
_C378: - y_15 + y_37 + 100000000 z_y_(37,_15) <= 99999975
_C379: y_15 - y_37 + 100000000 z_y_(15,_37) <= 99999972
_C38: x_4 <= 1110
_C380: z_x_(15,_37) + z_x_(37,_15) + z_y_(15,_37) + z_y_(37,_15) >= 1
_C381: - x_35 + x_39 + 100000000 z_x_(39,_35) <= 99999920
_C382: x_35 - x_39 + 100000000 z_x_(35,_39) <= 99999922
_C383: - y_35 + y_39 + 100000000 z_y_(39,_35) <= 99999972
_C384: y_35 - y_39 + 100000000 z_y_(35,_39) <= 99999969
_C385: z_x_(35,_39) + z_x_(39,_35) + z_y_(35,_39) + z_y_(39,_35) >= 1
_C386: - x_19 + x_25 + 100000000 z_x_(25,_19) <= 99999926
_C387: x_19 - x_25 + 100000000 z_x_(19,_25) <= 99999913
_C388: - y_19 + y_25 + 100000000 z_y_(25,_19) <= 99999966
_C389: y_19 - y_25 + 100000000 z_y_(19,_25) <= 99999965
_C39: y_4 >= 307
_C390: z_x_(19,_25) + z_x_(25,_19) + z_y_(19,_25) + z_y_(25,_19) >= 1
_C391: - x_25 + x_28 + 100000000 z_x_(28,_25) <= 99999917
_C392: x_25 - x_28 + 100000000 z_x_(25,_28) <= 99999926
_C393: - y_25 + y_28 + 100000000 z_y_(28,_25) <= 99999966
_C394: y_25 - y_28 + 100000000 z_y_(25,_28) <= 99999966
_C395: z_x_(25,_28) + z_x_(28,_25) + z_y_(25,_28) + z_y_(28,_25) >= 1
_C4: mid_for_y_0 >= 0
_C40: x_4 >= 0
_C41: mid_x_5 >= 0
_C42: - mid_x_5 - x_5 <= -718
_C43: mid_x_5 - x_5 >= -718
_C44: mid_for_y_5 >= 0
_C45: mid_for_y_5 - y_5 >= -3
_C46: x_5 <= 1119
_C47: y_5 >= 3
_C48: x_5 >= 0
_C49: mid_x_6 >= 0
_C5: mid_for_y_0 - y_0 >= -313
_C50: - mid_x_6 - x_6 <= -278
_C51: mid_x_6 - x_6 >= -278
_C52: mid_for_y_6 >= 0
_C53: mid_for_y_6 - y_6 >= -89
_C54: x_6 <= 1115
_C55: y_6 >= 89
_C56: x_6 >= 0
_C57: mid_x_7 >= 0
_C58: - mid_x_7 - x_7 <= -532
_C59: mid_x_7 - x_7 >= -532
_C6: x_0 <= 1113
_C60: mid_for_y_7 >= 0
_C61: mid_for_y_7 - y_7 >= -75
_C62: x_7 <= 1118
_C63: y_7 >= 75
_C64: x_7 >= 0
_C65: mid_x_8 >= 0
_C66: - mid_x_8 - x_8 <= -288
_C67: mid_x_8 - x_8 >= -288
_C68: mid_for_y_8 >= 0
_C69: mid_for_y_8 - y_8 >= -287
_C7: y_0 >= 313
_C70: x_8 <= 1127
_C71: y_8 >= 287
_C72: x_8 >= 0
_C73: mid_x_9 >= 0
_C74: - mid_x_9 - x_9 <= -791
_C75: mid_x_9 - x_9 >= -791
_C76: mid_for_y_9 >= 0
_C77: mid_for_y_9 - y_9 >= -317
_C78: x_9 <= 1115
_C79: y_9 >= 317
_C8: x_0 >= 0
_C80: x_9 >= 0
_C81: mid_x_10 >= 0
_C82: - mid_x_10 - x_10 <= -276
_C83: mid_x_10 - x_10 >= -276
_C84: mid_for_y_10 >= 0
_C85: mid_for_y_10 - y_10 >= -12
_C86: x_10 <= 1120
_C87: y_10 >= 12
_C88: x_10 >= 0
_C89: mid_x_11 >= 0
_C9: mid_x_1 >= 0
_C90: - mid_x_11 - x_11 <= -337
_C91: mid_x_11 - x_11 >= -337
_C92: mid_for_y_11 >= 0
_C93: mid_for_y_11 - y_11 >= -310
_C94: x_11 <= 1120
_C95: y_11 >= 310
_C96: x_11 >= 0
_C97: mid_x_12 >= 0
_C98: - mid_x_12 - x_12 <= -1143
_C99: mid_x_12 - x_12 >= -1143
Binaries
z_x_(10,_30)
z_x_(11,_25)
z_x_(11,_4)
z_x_(11,_8)
z_x_(15,_37)
z_x_(16,_20)
z_x_(16,_6)
z_x_(19,_25)
z_x_(19,_28)
z_x_(20,_16)
z_x_(20,_6)
z_x_(24,_32)
z_x_(25,_11)
z_x_(25,_19)
z_x_(25,_28)
z_x_(25,_4)
z_x_(28,_19)
z_x_(28,_25)
z_x_(30,_10)
z_x_(32,_24)
z_x_(35,_39)
z_x_(37,_15)
z_x_(39,_35)
z_x_(4,_11)
z_x_(4,_25)
z_x_(4,_8)
z_x_(6,_16)
z_x_(6,_20)
z_x_(8,_11)
z_x_(8,_4)
z_y_(10,_30)
z_y_(11,_25)
z_y_(11,_4)
z_y_(11,_8)
z_y_(15,_37)
z_y_(16,_20)
z_y_(16,_6)
z_y_(19,_25)
z_y_(19,_28)
z_y_(20,_16)
z_y_(20,_6)
z_y_(24,_32)
z_y_(25,_11)
z_y_(25,_19)
z_y_(25,_28)
z_y_(25,_4)
z_y_(28,_19)
z_y_(28,_25)
z_y_(30,_10)
z_y_(32,_24)
z_y_(35,_39)
z_y_(37,_15)
z_y_(39,_35)
z_y_(4,_11)
z_y_(4,_25)
z_y_(4,_8)
z_y_(6,_16)
z_y_(6,_20)
z_y_(8,_11)
z_y_(8,_4)
End
